cliques=[{5,0,16,21,39,10,26},{1,11,17,40,33},{1,0,2,4,3},{1,0,2,4,3},{1,0,2,4,3},{5,0,16,21,39,10,26},{5,6,8,9,7},{5,6,8,9,7},{5,6,8,9,7},{5,6,8,9,7},{5,0,16,21,39,10,26},{1,11,17,40,33},{11,14,12,15,13,10},{11,14,12,15,13,10},{11,14,12,15,13,10},{11,14,12,15,13,10},{5,0,16,21,39,10,26},{1,11,17,40,33},{16,17,18,19,20},{16,17,18,19,20},{16,17,18,19,20},{5,0,16,21,39,10,26},{6,12,27,34,22},{18,23,2,28,35,7},{43,15,19,24,37,4,31},{25,23,21,24,22},{5,0,16,21,39,10,26},{6,12,27,34,22},{18,23,2,28,35,7},{8,41,13,29},{14,3,36,30,42},{43,15,19,24,37,4,31},{25,38,9,32,20},{1,11,17,40,33},{6,12,27,34,22},{18,23,2,28,35,7},{14,3,36,30,42},{43,15,19,24,37,4,31},{25,38,9,32,20},{5,0,16,21,39,10,26},{1,11,17,40,33},{43,41,40,39,42},{43,41,40,39,42},{43,15,19,24,37,4,31}];
nr_cliques=44;
